; SPDX-License-Identifier: MPL-2.0
; Copyright (c) 2026 The RIINA Authors.
; Auto-generated from 02_FORMAL/coq/Industries/IndustryEducation.v (25 validations)
; Generated by scripts/generate-full-stack.py
;
; Translation Validation for IndustryEducation
; Layer 9: Verifies compiler backend preserves formal semantics.
; Each assertion checks source IR ≡ target code for a proven property.

(set-logic QF_LIA)
(set-option :produce-models true)

; IR node representation
(declare-sort IRNode 0)
(declare-sort TargetNode 0)

; student_data_sensitivity: source semantics (matches Coq)
(declare-fun source_student_data_sensitivity () Bool)
(declare-fun target_student_data_sensitivity () Bool)
(assert (= source_student_data_sensitivity target_student_data_sensitivity))

; coppa_applies: source semantics (matches Coq)
(declare-fun source_coppa_applies () Bool)
(declare-fun target_coppa_applies () Bool)
(assert (= source_coppa_applies target_coppa_applies))

; all_ferpa_controls: source semantics (matches Coq)
(declare-fun source_all_ferpa_controls () Bool)
(declare-fun target_all_ferpa_controls () Bool)
(assert (= source_all_ferpa_controls target_all_ferpa_controls))

; retention_years: source semantics (matches Coq)
(declare-fun source_retention_years () Bool)
(declare-fun target_retention_years () Bool)
(assert (= source_retention_years target_retention_years))

; count_ferpa_controls: source semantics (matches Coq)
(declare-fun source_count_ferpa_controls () Bool)
(declare-fun target_count_ferpa_controls () Bool)
(assert (= source_count_ferpa_controls target_count_ferpa_controls))

; classify_student_age: source semantics (matches Coq)
(declare-fun source_classify_student_age () Bool)
(declare-fun target_classify_student_age () Bool)
(assert (= source_classify_student_age target_classify_student_age))

; ferpa_compliance: translation preserves property (matches Coq: Theorem)
(declare-fun source_ferpa_compliance () Bool)
(declare-fun target_ferpa_compliance () Bool)
(assert (= source_ferpa_compliance target_ferpa_compliance))

; coppa_compliance: translation preserves property (matches Coq: Theorem)
(declare-fun source_coppa_compliance () Bool)
(declare-fun target_coppa_compliance () Bool)
(assert (= source_coppa_compliance target_coppa_compliance))

; cipa_compliance: translation preserves property (matches Coq: Theorem)
(declare-fun source_cipa_compliance () Bool)
(declare-fun target_cipa_compliance () Bool)
(assert (= source_cipa_compliance target_cipa_compliance))

; state_privacy_compliance: translation preserves property (matches Coq: Theorem)
(declare-fun source_state_privacy_compliance () Bool)
(declare-fun target_state_privacy_compliance () Bool)
(assert (= source_state_privacy_compliance target_state_privacy_compliance))

; vendor_data_practices: translation preserves property (matches Coq: Theorem)
(declare-fun source_vendor_data_practices () Bool)
(declare-fun target_vendor_data_practices () Bool)
(assert (= source_vendor_data_practices target_vendor_data_practices))

; education_record_consent: translation preserves property (matches Coq: Theorem)
(declare-fun source_education_record_consent () Bool)
(declare-fun target_education_record_consent () Bool)
(assert (= source_education_record_consent target_education_record_consent))

; under13_parental_consent: translation preserves property (matches Coq: Theorem)
(declare-fun source_under13_parental_consent () Bool)
(declare-fun target_under13_parental_consent () Bool)
(assert (= source_under13_parental_consent target_under13_parental_consent))

; special_ed_highest: translation preserves property (matches Coq: Theorem)
(declare-fun source_special_ed_highest () Bool)
(declare-fun target_special_ed_highest () Bool)
(assert (= source_special_ed_highest target_special_ed_highest))

; health_records_highest: translation preserves property (matches Coq: Theorem)
(declare-fun source_health_records_highest () Bool)
(declare-fun target_health_records_highest () Bool)
(assert (= source_health_records_highest target_health_records_highest))

; student_data_sensitivity_positive: translation preserves property (matches Coq: Theorem)
(declare-fun source_student_data_sensitivity_positive () Bool)
(declare-fun target_student_data_sensitivity_positive () Bool)
(assert (= source_student_data_sensitivity_positive target_student_data_sensitivity_positive))

; coppa_only_under13: translation preserves property (matches Coq: Theorem)
(declare-fun source_coppa_only_under13 () Bool)
(declare-fun target_coppa_only_under13 () Bool)
(assert (= source_coppa_only_under13 target_coppa_only_under13))

; adult_no_coppa: translation preserves property (matches Coq: Theorem)
(declare-fun source_adult_no_coppa () Bool)
(declare-fun target_adult_no_coppa () Bool)
(assert (= source_adult_no_coppa target_adult_no_coppa))

; teen_no_coppa: translation preserves property (matches Coq: Theorem)
(declare-fun source_teen_no_coppa () Bool)
(declare-fun target_teen_no_coppa () Bool)
(assert (= source_teen_no_coppa target_teen_no_coppa))

; all_ferpa_implies_consent: translation preserves property (matches Coq: Theorem)
(declare-fun source_all_ferpa_implies_consent () Bool)
(declare-fun target_all_ferpa_implies_consent () Bool)
(assert (= source_all_ferpa_implies_consent target_all_ferpa_implies_consent))

; all_ferpa_implies_disclosure_tracking: translation preserves property (matches Coq: Theorem)
(declare-fun source_all_ferpa_implies_disclosure_tracking () Bool)
(declare-fun target_all_ferpa_implies_disclosure_tracking () Bool)
(assert (= source_all_ferpa_implies_disclosure_tracking target_all_ferpa_implies_disclosure_tracking))

; all_ferpa_implies_access: translation preserves property (matches Coq: Theorem)
(declare-fun source_all_ferpa_implies_access () Bool)
(declare-fun target_all_ferpa_implies_access () Bool)
(assert (= source_all_ferpa_implies_access target_all_ferpa_implies_access))

; student_age_meets_minimum: translation preserves property (matches Coq: Theorem)
(declare-fun source_student_age_meets_minimum () Bool)
(declare-fun target_student_age_meets_minimum () Bool)
(assert (= source_student_age_meets_minimum target_student_age_meets_minimum))

; student_grade_within_bounds: translation preserves property (matches Coq: Theorem)
(declare-fun source_student_grade_within_bounds () Bool)
(declare-fun target_student_grade_within_bounds () Bool)
(assert (= source_student_grade_within_bounds target_student_grade_within_bounds))

; retention_positive: translation preserves property (matches Coq: Theorem)
(declare-fun source_retention_positive () Bool)
(declare-fun target_retention_positive () Bool)
(assert (= source_retention_positive target_retention_positive))

; education_record_long_retention: translation preserves property (matches Coq: Theorem)
(declare-fun source_education_record_long_retention () Bool)
(declare-fun target_education_record_long_retention () Bool)
(assert (= source_education_record_long_retention target_education_record_long_retention))

; count_ferpa_bounded: translation preserves property (matches Coq: Theorem)
(declare-fun source_count_ferpa_bounded () Bool)
(declare-fun target_count_ferpa_bounded () Bool)
(assert (= source_count_ferpa_bounded target_count_ferpa_bounded))

; all_ferpa_count_six: translation preserves property (matches Coq: Theorem)
(declare-fun source_all_ferpa_count_six () Bool)
(declare-fun target_all_ferpa_count_six () Bool)
(assert (= source_all_ferpa_count_six target_all_ferpa_count_six))

; under_13_classified_correctly: translation preserves property (matches Coq: Theorem)
(declare-fun source_under_13_classified_correctly () Bool)
(declare-fun target_under_13_classified_correctly () Bool)
(assert (= source_under_13_classified_correctly target_under_13_classified_correctly))

; adult_classified_correctly: translation preserves property (matches Coq: Theorem)
(declare-fun source_adult_classified_correctly () Bool)
(declare-fun target_adult_classified_correctly () Bool)
(assert (= source_adult_classified_correctly target_adult_classified_correctly))

; directory_info_least_sensitive: translation preserves property (matches Coq: Theorem)
(declare-fun source_directory_info_least_sensitive () Bool)
(declare-fun target_directory_info_least_sensitive () Bool)
(assert (= source_directory_info_least_sensitive target_directory_info_least_sensitive))

; Verify all translation validations are satisfiable
(check-sat)
(exit)
